
Gurobi 12.0.1 (mac64[arm], gurobi_cl) logging started Tue Apr  8 18:20:12 2025

Set parameter LogFile to value "gurobi.log"
Using license file /Users/advait//gurobi.lic

Gurobi 12.0.1 (mac64[arm], gurobi_cl) logging started Tue Apr  8 18:20:21 2025

Set parameter LogFile to value "gurobi.log"
Using license file /Users/advait//gurobi.lic

Gurobi 12.0.1 (mac64[arm], gurobi_cl) logging started Tue Apr  8 18:20:27 2025

Set parameter LogFile to value "gurobi.log"
Using license file /Users/advait/gurobi.lic

Gurobi 12.0.1 (mac64[arm], gurobi_cl) logging started Tue Apr  8 18:21:11 2025

Set parameter Username
Set parameter LicenseID to value 2648719
Set parameter LogFile to value "gurobi.log"
Using license file /Users/advait/gurobi/gurobi.lic
Academic license - for non-commercial use only - expires 2026-04-08

Gurobi 12.0.1 (mac64[arm], gurobi_cl) logging started Tue Apr  8 18:21:52 2025

Set parameter LogFile to value "gurobi.log"

Gurobi 12.0.1 (mac64[arm], gurobi_cl) logging started Tue Apr  8 18:21:59 2025

Set parameter Username
Set parameter LicenseID to value 2648719
Set parameter LogFile to value "gurobi.log"
Using license file /Users/advait/gurobi/gurobi.lic
Academic license - for non-commercial use only - expires 2026-04-08
